p cnf 15 22
15 -13 9 0
-15 -13 -6 0
15 11 3 0
15 -10 -3 0
-15 -3 1 0
-14 -10 -6 0
-14 -10 1 0
13 -11 2 0
13 -10 5 0
13 -8 3 0
13 -6 -3 0
13 4 -3 0
-12 -11 -7 0
-12 10 -6 0
12 10 -6 0
12 3 1 0
11 -7 -1 0
-11 -5 4 0
8 -7 4 0
8 6 5 0
-8 3 1 0
-8 2 -1 0
